Minimize
 + 541.0 x_1,6 + 386.0 x_1,7 + 25.0 x_1,8 + 1512.0 x_1,9 + 234.0 x_2,6
 + 899.0 x_2,7 + 103.0 x_2,8 + 1256.0 x_2,9 + 543.0 x_3,6 + 257.0 x_3,7
 + 1653.0 x_3,8 + 1085.0 x_3,9 + 1785.0 x_4,6 + 227.0 x_4,7 + 1670.0 x_4,8
 + 823.0 x_4,9 + 490.0 x_5,6 + 1233.0 x_5,7 + 1242.0 x_5,8 + 1841.0 x_5,9
Subject To
balance_1:  + x_1,6 + x_1,7 + x_1,8 + x_1,9 = 208.0
balance_2:  + x_2,6 + x_2,7 + x_2,8 + x_2,9 = 193.0
balance_3:  + x_3,6 + x_3,7 + x_3,8 + x_3,9 = 195.0
balance_4:  + x_4,6 + x_4,7 + x_4,8 + x_4,9 = 209.0
balance_5:  + x_5,6 + x_5,7 + x_5,8 + x_5,9 = 4031.0
balance_6:  - x_1,6 - x_2,6 - x_3,6 - x_4,6 - x_5,6
 = -1530.0
balance_7:  - x_1,7 - x_2,7 - x_3,7 - x_4,7 - x_5,7
 = -1583.0
balance_8:  - x_1,8 - x_2,8 - x_3,8 - x_4,8 - x_5,8
 = -1562.0
balance_9:  - x_1,9 - x_2,9 - x_3,9 - x_4,9 - x_5,9
 = -161.0
Bounds
x_1,6 <= 7407.0
x_1,7 <= 3546.0
x_1,8 <= 5072.0
x_1,9 <= 1932.0
x_2,6 <= 81.0
x_2,7 <= 90.0
x_2,8 <= 29.0
x_2,9 <= 902.0
x_3,6 <= 13.0
x_3,7 <= 8413.0
x_3,8 <= 8719.0
x_3,9 <= 7439.0
x_4,6 <= 5047.0
x_4,7 <= 83.0
x_4,8 <= 58.0
x_4,9 <= 76.0
x_5,6 <= 83.0
x_5,7 <= 7904.0
x_5,8 <= 73.0
x_5,9 <= 65.0
END
